NAME : OMNETRUN
COMMENT : 524.61
TYPE : CVRP
DIMENSION : 21
EDGE_WEIGHT_TYPE : EUC_2D
CAPACITY : 21
NODE_COORD_SECTION
1 0.107093 -0.77924
2 60.847 -414.75
3 146.314 -1503.34
4 201.721 -2661.4
5 249.189 -3240.59
6 61.9682 -3565.15
7 4.17341 -4016.24
8 216.05 -4659.91
9 53.223 -5273.53
10 467.392 -249.604
11 334.493 -852.395
12 497.499 -1253.68
13 455.287 -3541.82
14 415.126 -4091.96
15 587.135 -2117.24
16 690.689 -3010.01
17 739.331 -3839.83
18 720.476 -4276.94
19 668.88 -5130.68
20 851.221 -645.194
21 786.198 -1653.23
DEMAND_SECTION
1 0
2 1
3 1
4 1
5 1
6 1
7 1
8 1
9 1
10 1
11 1
12 1
13 1
14 1
15 1
16 1
17 1
18 1
19 1
20 1
21 1
DEPOT_SECTION
1
-1
EOF
